solution status: optimal solution found
objective value:                                    0
shell_j_$_197__8                                    1 	(obj:0)
shell_i_$_201                                       1 	(obj:0)
shell_j_$_95                                        1 	(obj:0)
shell_i_$_77                                        1 	(obj:0)
shell_j_$_77                                        1 	(obj:0)
shell_i_$_38                                        1 	(obj:0)
shell_j_$_146                                       1 	(obj:0)
shell_i_$_98                                        1 	(obj:0)
shell_j_$_242                                       1 	(obj:0)
shell_i_$_246__8                                    1 	(obj:0)
shell_i_$_240                                       1 	(obj:0)
shell_j_$_240                                       1 	(obj:0)
shell_i_$_89                                        1 	(obj:0)
shell_i_$_187                                       1 	(obj:0)
shell_j_$_187                                       1 	(obj:0)
shell_j_$_64                                        1 	(obj:0)
shell_i_$_252                                       1 	(obj:0)
shell_j_$_252                                       1 	(obj:0)
shell_i_$_212                                       1 	(obj:0)
shell_j_$_212                                       1 	(obj:0)
shell_j_$_164__8                                    1 	(obj:0)
shell_i_$_173                                       1 	(obj:0)
shell_i_$_206                                       1 	(obj:0)
shell_j_$_206                                       1 	(obj:0)
shell_i_$_54                                        1 	(obj:0)
shell_i_$_202__8                                    1 	(obj:0)
shell_j_$_254__8                                    1 	(obj:0)
shell_j_$_170                                       1 	(obj:0)
shell_j_$_214                                       1 	(obj:0)
shell_j_$_211                                       1 	(obj:0)
shell_i_$_171                                       1 	(obj:0)
shell_j_$_281                                       1 	(obj:0)
shell_i_$_160                                       1 	(obj:0)
shell_j_$_158                                       1 	(obj:0)
shell_j_$_228                                       1 	(obj:0)
shell_i_$_205__8                                    1 	(obj:0)
shell_i_$_280                                       1 	(obj:0)
shell_j_$_195__8                                    1 	(obj:0)
shell_i_$_166                                       1 	(obj:0)
shell_j_$_166                                       1 	(obj:0)
shell_j_$_33                                        1 	(obj:0)
shell_i_$_192                                       1 	(obj:0)
shell_j_$_165                                       1 	(obj:0)
shell_j_$_245__8                                    1 	(obj:0)
shell_j_$_53                                        1 	(obj:0)
shell_j_$_151                                       1 	(obj:0)
shell_j_$_31                                        1 	(obj:0)
shell_j_$_183                                       1 	(obj:0)
shell_j_$_269                                       1 	(obj:0)
shell_j_$_163__8                                    1 	(obj:0)
shell_j_$_243__8                                    1 	(obj:0)
shell_j_$_30                                        1 	(obj:0)
shell_j_$_253                                       1 	(obj:0)
shell_j_$_41                                        1 	(obj:0)
shell_i_$_162__8                                    1 	(obj:0)
shell_j_$_101                                       1 	(obj:0)
shell_j_$_63                                        1 	(obj:0)
shell_j_$_60                                        1 	(obj:0)
shell_j_$_55                                        1 	(obj:0)
shell_j_$_224                                       1 	(obj:0)
shell_j_$_236__8                                    1 	(obj:0)
shell_j_$_76                                        1 	(obj:0)
shell_j_$_213__8                                    1 	(obj:0)
shell_j_$_274                                       1 	(obj:0)
shell_j_$_247                                       1 	(obj:0)
shell_i_$_204__8                                    1 	(obj:0)
shell_j_$_172__8                                    1 	(obj:0)
shell_j_$_52                                        1 	(obj:0)
shell_j_$_248                                       1 	(obj:0)
shell_j_$_154__8                                    1 	(obj:0)
shell_j_$_88                                        1 	(obj:0)
shell_j_$_100                                       1 	(obj:0)
shell_j_$_255                                       1 	(obj:0)
shell_j_$_238__8                                    1 	(obj:0)
shell_j_$_203__8                                    1 	(obj:0)
shell_j_$_161__8                                    1 	(obj:0)
shell_i_$_199                                       1 	(obj:0)
shell_j_$_94                                        1 	(obj:0)
shell_j_$_99                                        1 	(obj:0)
shell_j_$_156__8                                    1 	(obj:0)
shell_i_$_32                                        1 	(obj:0)
shell_j_$_265                                       1 	(obj:0)
shell_j_$_233                                       1 	(obj:0)
shell_j_$_283                                       1 	(obj:0)
shell_i_$_42                                        1 	(obj:0)
shell_j_$_207                                       1 	(obj:0)
shell_j_$_244__8                                    1 	(obj:0)
$_166_x                                            10 	(obj:0)
$_166_y                                           -10 	(obj:0)
$_166_z                                            14 	(obj:0)
$_146_x                                             9 	(obj:0)
$_252_x                                            10 	(obj:0)
$_33_x                                              9 	(obj:0)
$_33_y                                            -10 	(obj:0)
$_33_z                                             14 	(obj:0)
$_252_y                                           -10 	(obj:0)
$_252_z                                             2 	(obj:0)
$_192_x                                            10 	(obj:0)
$_192_y                                            -9 	(obj:0)
$_192_z                                            -2 	(obj:0)
$_146_y                                           -10 	(obj:0)
$_146_z                                             6 	(obj:0)
$_165_x                                            10 	(obj:0)
$_165_y                                           -10 	(obj:0)
$_165_z                                            18 	(obj:0)
$_212_x                                            10 	(obj:0)
$_212_y                                           -10 	(obj:0)
$_245__8_x                                         10 	(obj:0)
$_245__8_y                                        -10 	(obj:0)
$_245__8_z                                         17 	(obj:0)
$_212_z                                             6 	(obj:0)
$_95_x                                             10 	(obj:0)
$_53_x                                             10 	(obj:0)
$_53_y                                            -10 	(obj:0)
$_53_z                                             21 	(obj:0)
$_95_y                                            -10 	(obj:0)
$_164__8_x                                          9 	(obj:0)
$_151_x                                             7 	(obj:0)
$_151_y                                           -10 	(obj:0)
$_151_z                                            -6 	(obj:0)
$_164__8_y                                        -10 	(obj:0)
$_164__8_z                                         20 	(obj:0)
$_31_x                                             10 	(obj:0)
$_31_y                                            -10 	(obj:0)
$_31_z                                             20 	(obj:0)
$_98_x                                             10 	(obj:0)
$_98_y                                             -9 	(obj:0)
$_183_x                                             6 	(obj:0)
$_183_y                                           -10 	(obj:0)
$_183_z                                            -6 	(obj:0)
$_173_x                                            10 	(obj:0)
$_173_y                                            -6 	(obj:0)
$_269_x                                             6 	(obj:0)
$_269_y                                           -10 	(obj:0)
$_269_z                                             5 	(obj:0)
$_173_z                                             2 	(obj:0)
$_98_z                                             -1 	(obj:0)
$_163__8_x                                         10 	(obj:0)
$_163__8_y                                        -10 	(obj:0)
$_163__8_z                                         12 	(obj:0)
$_95_z                                              3 	(obj:0)
$_206_x                                            10 	(obj:0)
$_243__8_x                                          4 	(obj:0)
$_243__8_y                                        -10 	(obj:0)
$_243__8_z                                          3 	(obj:0)
$_206_y                                           -10 	(obj:0)
$_206_z                                            15 	(obj:0)
$_30_x                                              4 	(obj:0)
$_30_y                                            -10 	(obj:0)
$_30_z                                             -9 	(obj:0)
$_197__8_y                                        -10 	(obj:0)
$_242_x                                             6 	(obj:0)
$_253_x                                             6 	(obj:0)
$_253_y                                           -10 	(obj:0)
$_253_z                                             3 	(obj:0)
$_54_x                                             10 	(obj:0)
$_54_y                                            -10 	(obj:0)
$_41_x                                              9 	(obj:0)
$_41_y                                            -10 	(obj:0)
$_41_z                                             -4 	(obj:0)
$_54_z                                             13 	(obj:0)
$_242_y                                           -10 	(obj:0)
$_162__8_x                                         10 	(obj:0)
$_162__8_y                                        -10 	(obj:0)
$_162__8_z                                         -4 	(obj:0)
$_242_z                                            -1 	(obj:0)
$_202__8_x                                         10 	(obj:0)
$_101_x                                            10 	(obj:0)
$_101_y                                           -10 	(obj:0)
$_101_z                                            -3 	(obj:0)
$_202__8_y                                         -9 	(obj:0)
$_63_x                                              5 	(obj:0)
$_63_y                                            -10 	(obj:0)
$_63_z                                             -3 	(obj:0)
$_201_x                                            10 	(obj:0)
$_77_x                                             10 	(obj:0)
$_60_x                                              7 	(obj:0)
$_60_y                                            -10 	(obj:0)
$_60_z                                             -1 	(obj:0)
$_254__8_x                                          4 	(obj:0)
$_254__8_y                                        -10 	(obj:0)
$_55_x                                              6 	(obj:0)
$_55_y                                            -10 	(obj:0)
$_55_z                                             21 	(obj:0)
$_254__8_z                                          5 	(obj:0)
$_246__8_x                                         10 	(obj:0)
$_224_x                                             6 	(obj:0)
$_224_y                                           -10 	(obj:0)
$_224_z                                            -2 	(obj:0)
$_246__8_y                                        -10 	(obj:0)
$_170_x                                            10 	(obj:0)
$_236__8_x                                          2 	(obj:0)
$_236__8_y                                        -10 	(obj:0)
$_236__8_z                                          4 	(obj:0)
$_170_y                                           -10 	(obj:0)
$_170_z                                             4 	(obj:0)
$_76_x                                              8 	(obj:0)
$_76_y                                            -10 	(obj:0)
$_76_z                                             -1 	(obj:0)
$_246__8_z                                         16 	(obj:0)
$_77_y                                            -10 	(obj:0)
$_213__8_x                                          4 	(obj:0)
$_213__8_y                                        -10 	(obj:0)
$_213__8_z                                          2 	(obj:0)
$_214_x                                             9 	(obj:0)
$_214_y                                           -10 	(obj:0)
$_274_x                                             6 	(obj:0)
$_274_y                                           -10 	(obj:0)
$_274_z                                             1 	(obj:0)
$_214_z                                             2 	(obj:0)
$_77_z                                             -2 	(obj:0)
$_247_x                                             6 	(obj:0)
$_247_y                                           -10 	(obj:0)
$_247_z                                            19 	(obj:0)
$_240_x                                            10 	(obj:0)
$_211_x                                            10 	(obj:0)
$_204__8_x                                         10 	(obj:0)
$_204__8_y                                         -4 	(obj:0)
$_204__8_z                                         13 	(obj:0)
$_211_y                                           -10 	(obj:0)
$_211_z                                             5 	(obj:0)
$_172__8_x                                          4 	(obj:0)
$_172__8_y                                        -10 	(obj:0)
$_172__8_z                                          8 	(obj:0)
$_240_y                                           -10 	(obj:0)
$_52_x                                              2 	(obj:0)
$_52_y                                            -10 	(obj:0)
$_52_z                                              7 	(obj:0)
$_171_x                                            10 	(obj:0)
$_171_y                                            -8 	(obj:0)
$_248_x                                             9 	(obj:0)
$_248_y                                           -10 	(obj:0)
$_248_z                                            15 	(obj:0)
$_171_z                                             2 	(obj:0)
$_201_y                                            -9 	(obj:0)
$_154__8_x                                          4 	(obj:0)
$_154__8_y                                        -10 	(obj:0)
$_154__8_z                                         -6 	(obj:0)
$_201_z                                             2 	(obj:0)
$_281_x                                             8 	(obj:0)
$_88_x                                             10 	(obj:0)
$_88_y                                            -10 	(obj:0)
$_88_z                                             19 	(obj:0)
$_281_y                                           -10 	(obj:0)
$_281_z                                            15 	(obj:0)
$_100_x                                             5 	(obj:0)
$_100_y                                           -10 	(obj:0)
$_100_z                                             5 	(obj:0)
$_89_x                                             10 	(obj:0)
$_89_y                                             -9 	(obj:0)
$_255_x                                            10 	(obj:0)
$_255_y                                           -10 	(obj:0)
$_255_z                                            -1 	(obj:0)
$_160_x                                            10 	(obj:0)
$_160_y                                            -8 	(obj:0)
$_238__8_x                                          4 	(obj:0)
$_238__8_y                                        -10 	(obj:0)
$_238__8_z                                         20 	(obj:0)
$_160_z                                            -2 	(obj:0)
$_89_z                                             14 	(obj:0)
$_203__8_x                                          4 	(obj:0)
$_203__8_y                                        -10 	(obj:0)
$_203__8_z                                         -2 	(obj:0)
$_38_x                                             10 	(obj:0)
$_158_x                                             8 	(obj:0)
$_161__8_x                                          5 	(obj:0)
$_161__8_y                                        -10 	(obj:0)
$_158_y                                           -10 	(obj:0)
$_158_z                                             2 	(obj:0)
$_199_x                                            10 	(obj:0)
$_199_y                                            -7 	(obj:0)
$_199_z                                             2 	(obj:0)
$_38_y                                            -10 	(obj:0)
$_187_x                                            10 	(obj:0)
$_94_x                                             10 	(obj:0)
$_94_y                                            -10 	(obj:0)
$_94_z                                              1 	(obj:0)
$_228_x                                             8 	(obj:0)
$_228_y                                           -10 	(obj:0)
$_99_x                                              7 	(obj:0)
$_99_y                                            -10 	(obj:0)
$_99_z                                             -2 	(obj:0)
$_228_z                                             6 	(obj:0)
$_187_y                                           -10 	(obj:0)
$_156__8_x                                          7 	(obj:0)
$_156__8_y                                        -10 	(obj:0)
$_156__8_z                                         20 	(obj:0)
$_187_z                                             8 	(obj:0)
$_205__8_x                                         10 	(obj:0)
$_32_x                                             10 	(obj:0)
$_32_y                                             -4 	(obj:0)
$_32_z                                             12 	(obj:0)
$_205__8_y                                         -4 	(obj:0)
$_205__8_z                                         21 	(obj:0)
$_265_x                                             8 	(obj:0)
$_265_y                                           -10 	(obj:0)
$_265_z                                             1 	(obj:0)
$_38_z                                              7 	(obj:0)
$_197__8_z                                         14 	(obj:0)
$_233_x                                             5 	(obj:0)
$_233_y                                           -10 	(obj:0)
$_233_z                                             2 	(obj:0)
$_280_x                                            10 	(obj:0)
$_280_y                                            -8 	(obj:0)
$_283_x                                             7 	(obj:0)
$_283_y                                           -10 	(obj:0)
$_283_z                                             3 	(obj:0)
$_280_z                                            -1 	(obj:0)
$_64_x                                              2 	(obj:0)
$_42_x                                             10 	(obj:0)
$_42_y                                            -10 	(obj:0)
$_42_z                                             -9 	(obj:0)
$_64_y                                            -10 	(obj:0)
$_195__8_x                                          4 	(obj:0)
$_207_x                                             6 	(obj:0)
$_207_y                                           -10 	(obj:0)
$_207_z                                            18 	(obj:0)
$_195__8_y                                        -10 	(obj:0)
$_244__8_x                                          5 	(obj:0)
$_244__8_y                                        -10 	(obj:0)
$_244__8_z                                          4 	(obj:0)
$_64_z                                             -1 	(obj:0)
$_197__8_x                                          4 	(obj:0)
